c [ 1 2 -3 -4 -5 -6 -7 -8 -9 -10 ]
c r=8.000 p0=0.080
p cnf 10 80
-9 5 1 0
-3 -2 8 0
-1 -4 -3 0
7 -3 -8 0
-9 5 -1 0
9 -10 -1 0
-1 5 -7 0
2 -6 -1 0
8 4 -10 0
-6 5 10 0
9 -4 1 0
-2 -4 1 0
-1 -10 5 0
1 4 7 0
2 9 -3 0
9 -4 -5 0
7 2 4 0
-10 5 -1 0
3 8 -7 0
3 -10 -5 0
-4 9 2 0
1 6 -5 0
1 6 2 0
9 -1 -10 0
-1 -10 8 0
-8 2 4 0
6 -4 -2 0
-4 -1 2 0
2 -5 10 0
-7 -5 -2 0
9 -2 -8 0
8 -7 -1 0
-10 9 7 0
-8 6 1 0
9 1 -8 0
-4 -8 3 0
10 7 -3 0
-6 8 4 0
-6 -8 -9 0
7 4 -5 0
-6 10 2 0
-7 -4 9 0
-2 -9 -3 0
-2 -4 -9 0
10 -7 6 0
9 4 -7 0
2 4 9 0
5 3 -8 0
-10 5 1 0
-2 4 -8 0
3 -10 4 0
9 4 -8 0
8 -9 -7 0
10 -2 -8 0
1 -8 -4 0
-10 9 7 0
9 -8 4 0
4 -8 10 0
-5 9 -4 0
3 -1 -10 0
1 -6 9 0
5 -9 1 0
-2 6 1 0
-7 6 10 0
-7 2 9 0
4 5 -6 0
-3 -10 7 0
-9 3 7 0
9 -4 5 0
3 -6 -1 0
-8 5 6 0
-4 5 10 0
-10 5 7 0
4 -6 -9 0
-10 -2 6 0
9 -4 -5 0
1 4 9 0
-1 8 -7 0
-6 -7 -4 0
9 -10 2 0
